<?xml version = "1.0" encoding="UTF-8" standalone="yes"?>
<CPLEXSolution version="1.2">
 <header
   problemName="/home/piotrek/Kodzenie/SolversComparision/problems/afirocplex.lp"
   objectiveValue="-464.753142857143"
   solutionTypeValue="1"
   solutionTypeString="basic"
   solutionStatusValue="1"
   solutionStatusString="optimal"
   solutionMethodString="dual"
   primalFeasible="1"
   dualFeasible="1"
   simplexIterations="5"
   writeLevel="1"/>
 <quality
   epRHS="1e-06"
   epOpt="1e-06"
   maxPrimalInfeas="0"
   maxDualInfeas="0"
   maxPrimalResidual="1.77635683940025e-14"
   maxDualResidual="5.55111512312578e-17"
   maxX="500"
   maxPi="0.942857142857143"
   maxSlack="500"
   maxRedCost="10"
   kappa="14.9551769242665"/>
 <linearConstraints>
  <constraint name="R09" index="0" status="LL" slack="0" dual="-0.628571428571429"/>
  <constraint name="R10" index="1" status="LL" slack="0" dual="0"/>
  <constraint name="X05" index="2" status="LL" slack="0" dual="-0.344771428571429"/>
  <constraint name="X21" index="3" status="LL" slack="0" dual="-0.228571428571429"/>
  <constraint name="R12" index="4" status="LL" slack="0" dual="-0"/>
  <constraint name="R13" index="5" status="LL" slack="0" dual="0"/>
  <constraint name="X17" index="6" status="BS" slack="61.7857142857143" dual="0"/>
  <constraint name="X18" index="7" status="BS" slack="0" dual="0"/>
  <constraint name="X19" index="8" status="BS" slack="0" dual="0"/>
  <constraint name="X20" index="9" status="BS" slack="0" dual="0"/>
  <constraint name="R19" index="10" status="LL" slack="0" dual="-0.942857142857143"/>
  <constraint name="R20" index="11" status="LL" slack="0" dual="0"/>
  <constraint name="X27" index="12" status="LL" slack="0" dual="-0.874342857142857"/>
  <constraint name="X44" index="13" status="LL" slack="0" dual="-0.342857142857143"/>
  <constraint name="R22" index="14" status="LL" slack="0" dual="0"/>
  <constraint name="R23" index="15" status="LL" slack="0" dual="0"/>
  <constraint name="X40" index="16" status="BS" slack="500" dual="0"/>
  <constraint name="X41" index="17" status="BS" slack="0" dual="0"/>
  <constraint name="X42" index="18" status="BS" slack="0" dual="0"/>
  <constraint name="X43" index="19" status="BS" slack="0" dual="0"/>
  <constraint name="X45" index="20" status="LL" slack="0" dual="-0.942857142857143"/>
  <constraint name="X46" index="21" status="LL" slack="0" dual="-0.628571428571429"/>
  <constraint name="X47" index="22" status="LL" slack="0" dual="-0"/>
  <constraint name="X48" index="23" status="LL" slack="0" dual="-0.942857142857143"/>
  <constraint name="X49" index="24" status="BS" slack="378.460357142857" dual="0"/>
  <constraint name="X50" index="25" status="BS" slack="10.2" dual="0"/>
  <constraint name="X51" index="26" status="BS" slack="280.692857142857" dual="0"/>
 </linearConstraints>
 <variables>
  <variable name="X02" index="0" status="BS" value="25.5" reducedCost="0"/>
  <variable name="X14" index="1" status="BS" value="18.2142857142857" reducedCost="0"/>
  <variable name="X23" index="2" status="BS" value="475.92" reducedCost="0"/>
  <variable name="X36" index="3" status="BS" value="339.942857142857" reducedCost="0"/>
  <variable name="X39" index="4" status="LL" value="0" reducedCost="10"/>
  <variable name="X01" index="5" status="BS" value="80" reducedCost="0"/>
  <variable name="X03" index="6" status="BS" value="54.5" reducedCost="0"/>
  <variable name="X04" index="7" status="BS" value="84.8" reducedCost="0"/>
  <variable name="X06" index="8" status="BS" value="18.2142857142857" reducedCost="0"/>
  <variable name="X07" index="9" status="LL" value="0" reducedCost="0"/>
  <variable name="X08" index="10" status="LL" value="0" reducedCost="0"/>
  <variable name="X09" index="11" status="LL" value="0" reducedCost="0"/>
  <variable name="X15" index="12" status="BS" value="0" reducedCost="0"/>
  <variable name="X16" index="13" status="BS" value="19.3071428571429" reducedCost="0"/>
  <variable name="X10" index="14" status="LL" value="0" reducedCost="2.22891428571429"/>
  <variable name="X11" index="15" status="LL" value="0" reducedCost="2.24965714285714"/>
  <variable name="X12" index="16" status="LL" value="0" reducedCost="2.2704"/>
  <variable name="X13" index="17" status="LL" value="0" reducedCost="2.2902"/>
  <variable name="X22" index="18" status="BS" value="500" reducedCost="0"/>
  <variable name="X24" index="19" status="BS" value="24.08" reducedCost="0"/>
  <variable name="X25" index="20" status="BS" value="0" reducedCost="0"/>
  <variable name="X26" index="21" status="BS" value="215" reducedCost="0"/>
  <variable name="X28" index="22" status="LL" value="0" reducedCost="0"/>
  <variable name="X29" index="23" status="LL" value="0" reducedCost="0"/>
  <variable name="X30" index="24" status="LL" value="0" reducedCost="0"/>
  <variable name="X31" index="25" status="LL" value="0" reducedCost="0"/>
  <variable name="X38" index="26" status="BS" value="0" reducedCost="0"/>
  <variable name="X37" index="27" status="BS" value="383.942857142857" reducedCost="0"/>
  <variable name="X32" index="28" status="LL" value="0" reducedCost="2.0658"/>
  <variable name="X33" index="29" status="LL" value="0" reducedCost="2.0922"/>
  <variable name="X34" index="30" status="LL" value="0" reducedCost="2.12048571428571"/>
  <variable name="X35" index="31" status="LL" value="0" reducedCost="2.14877142857143"/>
 </variables>
</CPLEXSolution>
